presolving:
(round 1, fast)       2139 del vars, 3255 del conss, 0 add conss, 632 chg bounds, 2 chg sides, 0 chg coeffs, 0 upgd conss, 0 impls, 555 clqs
(round 2, fast)       2982 del vars, 3455 del conss, 0 add conss, 632 chg bounds, 3 chg sides, 0 chg coeffs, 0 upgd conss, 0 impls, 555 clqs
   (0.1s) running MILP presolver
   (0.1s) MILP presolver (2 rounds): 0 aggregations, 0 fixings, 0 bound changes
(round 3, exhaustive) 2982 del vars, 3640 del conss, 0 add conss, 632 chg bounds, 3 chg sides, 0 chg coeffs, 0 upgd conss, 0 impls, 555 clqs
(round 4, exhaustive) 2982 del vars, 3640 del conss, 0 add conss, 632 chg bounds, 3 chg sides, 0 chg coeffs, 2056 upgd conss, 0 impls, 555 clqs
   (0.1s) probing: 51/279 (18.3%) - 0 fixings, 0 aggregations, 0 implications, 0 bound changes
   (0.1s) probing aborted: 50/50 successive totally useless probings
   (0.4s) symmetry computation started: requiring (bin +, int -, cont +), (fixed: bin -, int +, cont -)
   (0.4s) no symmetry present
presolving (5 rounds: 5 fast, 3 medium, 3 exhaustive):
 5605 deleted vars, 3919 deleted constraints, 0 added constraints, 632 tightened bounds, 0 added holes, 3 changed sides, 1 changed coefficients
 0 implications, 555 cliques
presolved problem has 279 variables (279 bin, 0 int, 0 impl, 0 cont) and 2056 constraints
      1 constraints of type <knapsack>
    555 constraints of type <setppc>
   1500 constraints of type <logicor>
transformed objective value is always integral (scale: 0.02)
Presolving Time: 0.39

 time | node  | left  |LP iter|LP it/n|mem/heur|mdpt |vars |cons |rows |cuts |sepa|confs|strbr|  dualbound   | primalbound  |  gap   | compl. 
p 0.4s|     1 |     0 |     0 |     - |   locks|   0 | 279 |2056 |2056 |   0 |  0 |   0 |   0 |-1.834201e+06 |-1.778602e+06 |   3.13%| unknown
i 0.4s|     1 |     0 |     0 |     - |  oneopt|   0 | 279 |2056 |2056 |   0 |  0 |   0 |   0 |-1.834201e+06 |-1.823633e+06 |   0.58%| unknown
  0.5s|     1 |     0 |   546 |     - |    92M |   0 | 279 |2056 |2056 |   0 |  0 |   0 |   0 |-1.831060e+06 |-1.823633e+06 |   0.41%| unknown
  0.5s|     1 |     0 |   582 |     - |    93M |   0 | 279 |2056 |2057 |   1 |  1 |   0 |   0 |-1.831053e+06 |-1.823633e+06 |   0.41%| unknown
  0.6s|     1 |     0 |   660 |     - |    95M |   0 | 279 |2056 |2058 |   2 |  2 |   0 |   0 |-1.831037e+06 |-1.823633e+06 |   0.41%| unknown
  0.6s|     1 |     0 |   697 |     - |    97M |   0 | 279 |2056 |2059 |   3 |  3 |   0 |   0 |-1.831035e+06 |-1.823633e+06 |   0.41%| unknown
  0.6s|     1 |     0 |   731 |     - |    99M |   0 | 279 |2056 |2060 |   4 |  4 |   0 |   0 |-1.831034e+06 |-1.823633e+06 |   0.41%| unknown
  0.7s|     1 |     0 |   786 |     - |   102M |   0 | 279 |2056 |2061 |   5 |  5 |   0 |   0 |-1.831032e+06 |-1.823633e+06 |   0.41%| unknown
  0.7s|     1 |     0 |   824 |     - |   103M |   0 | 279 |2056 |2062 |   6 |  6 |   0 |   0 |-1.831031e+06 |-1.823633e+06 |   0.41%| unknown
  0.8s|     1 |     0 |   867 |     - |   105M |   0 | 279 |2056 |2063 |   7 |  7 |   0 |   0 |-1.831026e+06 |-1.823633e+06 |   0.41%| unknown
  0.8s|     1 |     0 |   905 |     - |   107M |   0 | 279 |2056 |2064 |   8 |  8 |   0 |   0 |-1.831024e+06 |-1.823633e+06 |   0.41%| unknown
  0.9s|     1 |     0 |   961 |     - |   109M |   0 | 279 |2056 |2065 |   9 |  9 |   0 |   0 |-1.831021e+06 |-1.823633e+06 |   0.41%| unknown
  0.9s|     1 |     0 |   988 |     - |   110M |   0 | 279 |2056 |2066 |  10 | 10 |   0 |   0 |-1.831019e+06 |-1.823633e+06 |   0.41%| unknown
  1.0s|     1 |     0 |  1013 |     - |   110M |   0 | 279 |2056 |2067 |  11 | 11 |   0 |   0 |-1.831019e+06 |-1.823633e+06 |   0.41%| unknown
  1.0s|     1 |     0 |  1037 |     - |   111M |   0 | 279 |2056 |2068 |  12 | 12 |   0 |   0 |-1.831019e+06 |-1.823633e+06 |   0.40%| unknown
 time | node  | left  |LP iter|LP it/n|mem/heur|mdpt |vars |cons |rows |cuts |sepa|confs|strbr|  dualbound   | primalbound  |  gap   | compl. 
  1.0s|     1 |     0 |  1058 |     - |   111M |   0 | 279 |2056 |2069 |  13 | 13 |   0 |   0 |-1.831018e+06 |-1.823633e+06 |   0.40%| unknown
  1.0s|     1 |     0 |  1066 |     - |   111M |   0 | 279 |2056 |2070 |  14 | 14 |   0 |   0 |-1.831018e+06 |-1.823633e+06 |   0.40%| unknown
  1.0s|     1 |     0 |  1091 |     - |   111M |   0 | 279 |2056 |2071 |  15 | 15 |   0 |   0 |-1.831018e+06 |-1.823633e+06 |   0.40%| unknown
r 1.0s|     1 |     0 |  1091 |     - |rounding|   0 | 279 |2056 |2071 |  15 | 15 |   0 |   0 |-1.831018e+06 |-1.823637e+06 |   0.40%| unknown
r 1.0s|     1 |     0 |  1091 |     - |shifting|   0 | 279 |2056 |2071 |  15 | 15 |   0 |   0 |-1.831018e+06 |-1.823653e+06 |   0.40%| unknown
  1.0s|     1 |     0 |  1116 |     - |   112M |   0 | 279 |2056 |2072 |  16 | 16 |   0 |   0 |-1.831017e+06 |-1.823653e+06 |   0.40%| unknown
i 1.0s|     1 |     0 |  1116 |     - |  oneopt|   0 | 279 |2056 |2072 |  16 | 16 |   0 |   0 |-1.831017e+06 |-1.829267e+06 |   0.10%| unknown
  1.1s|     1 |     0 |  1155 |     - |   112M |   0 | 279 |2056 |2072 |  17 | 17 |   0 |   0 |-1.831016e+06 |-1.829267e+06 |   0.10%| unknown
  1.1s|     1 |     0 |  1178 |     - |   112M |   0 | 279 |2056 |2073 |  18 | 18 |   0 |   0 |-1.831016e+06 |-1.829267e+06 |   0.10%| unknown
  1.1s|     1 |     0 |  1192 |     - |   112M |   0 | 279 |2056 |2074 |  19 | 19 |   0 |   0 |-1.831015e+06 |-1.829267e+06 |   0.10%| unknown
  1.1s|     1 |     0 |  1241 |     - |   112M |   0 | 279 |2056 |2076 |  21 | 20 |   0 |   0 |-1.831014e+06 |-1.829267e+06 |   0.10%| unknown
d 1.3s|     1 |     0 |  2428 |     - |farkasdi|   0 | 279 |2056 |2076 |   0 | 22 |   0 |   0 |-1.831014e+06 |-1.830115e+06 |   0.05%| unknown
L 3.9s|     1 |     0 |  8526 |     - |    rens|   0 | 279 |2056 |2076 |  21 | 22 |   0 |   0 |-1.831014e+06 |-1.830326e+06 |   0.04%| unknown
  3.9s|     1 |     0 |  8526 |     - |   112M |   0 | 279 |2056 |2076 |  21 | 22 |   0 |   0 |-1.831014e+06 |-1.830326e+06 |   0.04%| unknown
  3.9s|     1 |     0 |  8526 |     - |   112M |   0 | 279 |2056 |2016 |  21 | 22 |   0 |   0 |-1.831014e+06 |-1.830326e+06 |   0.04%| unknown
 time | node  | left  |LP iter|LP it/n|mem/heur|mdpt |vars |cons |rows |cuts |sepa|confs|strbr|  dualbound   | primalbound  |  gap   | compl. 
  4.0s|     1 |     0 |  8535 |     - |   112M |   0 | 279 |1996 |2017 |  22 | 23 |   0 |   0 |-1.831014e+06 |-1.830326e+06 |   0.04%| unknown
  4.0s|     1 |     0 |  8547 |     - |   112M |   0 | 279 |1996 |2018 |  23 | 24 |   0 |   0 |-1.831014e+06 |-1.830326e+06 |   0.04%| unknown
(run 1, node 1) restarting after 31 global fixings of integer variables

(restart) converted 22 cuts from the global cut pool into linear constraints

presolving:
(round 1, fast)       31 del vars, 0 del conss, 0 add conss, 0 chg bounds, 0 chg sides, 4571 chg coeffs, 0 upgd conss, 0 impls, 495 clqs
   (4.0s) running MILP presolver
   (4.0s) MILP presolver found nothing
(round 2, medium)     31 del vars, 19 del conss, 19 add conss, 0 chg bounds, 50 chg sides, 4640 chg coeffs, 0 upgd conss, 0 impls, 495 clqs
(round 3, exhaustive) 31 del vars, 20 del conss, 19 add conss, 0 chg bounds, 50 chg sides, 4640 chg coeffs, 12 upgd conss, 0 impls, 495 clqs
presolving (4 rounds: 4 fast, 3 medium, 2 exhaustive):
 31 deleted vars, 20 deleted constraints, 19 added constraints, 0 tightened bounds, 0 added holes, 50 changed sides, 4640 changed coefficients
 0 implications, 495 cliques
presolved problem has 248 variables (248 bin, 0 int, 0 impl, 0 cont) and 2017 constraints
     12 constraints of type <knapsack>
    495 constraints of type <setppc>
     10 constraints of type <linear>
   1500 constraints of type <logicor>
transformed objective value is always integral (scale: 0.02)
Presolving Time: 0.45
transformed 7/9 original solutions to the transformed problem space

 time | node  | left  |LP iter|LP it/n|mem/heur|mdpt |vars |cons |rows |cuts |sepa|confs|strbr|  dualbound   | primalbound  |  gap   | compl. 
  4.1s|     1 |     0 |  9122 |     - |   104M |   0 | 248 |2017 |2017 |   0 |  0 |   0 |   0 |-1.831014e+06 |-1.830326e+06*|   0.04%| unknown
  4.2s|     1 |     0 |  9174 |     - |   105M |   0 | 248 |2017 |2018 |   1 |  1 |   0 |   0 |-1.831012e+06 |-1.830326e+06*|   0.04%| unknown
  4.2s|     1 |     0 |  9208 |     - |   106M |   0 | 248 |2017 |2019 |   2 |  2 |   0 |   0 |-1.831011e+06 |-1.830326e+06*|   0.04%| unknown
  4.3s|     1 |     0 |  9238 |     - |   108M |   0 | 248 |2017 |2020 |   3 |  3 |   0 |   0 |-1.831011e+06 |-1.830326e+06*|   0.04%| unknown
  4.4s|     1 |     0 |  9268 |     - |   109M |   0 | 248 |2017 |2021 |   4 |  4 |   0 |   0 |-1.831010e+06 |-1.830326e+06*|   0.04%| unknown
  4.5s|     1 |     0 |  9290 |     - |   112M |   0 | 248 |2017 |2022 |   5 |  5 |   0 |   0 |-1.831010e+06 |-1.830326e+06*|   0.04%| unknown
  4.6s|     1 |     0 |  9344 |     - |   113M |   0 | 248 |2017 |2023 |   6 |  6 |   0 |   0 |-1.831009e+06 |-1.830326e+06*|   0.04%| unknown
  4.6s|     1 |     0 |  9362 |     - |   114M |   0 | 248 |2017 |2024 |   7 |  7 |   0 |   0 |-1.831008e+06 |-1.830326e+06*|   0.04%| unknown
  4.7s|     1 |     0 |  9375 |     - |   116M |   0 | 248 |2017 |2025 |   8 |  8 |   0 |   0 |-1.831008e+06 |-1.830326e+06*|   0.04%| unknown
  4.8s|     1 |     0 |  9410 |     - |   118M |   0 | 248 |2017 |2026 |   9 |  9 |   0 |   0 |-1.831008e+06 |-1.830326e+06*|   0.04%| unknown
  4.9s|     1 |     0 |  9443 |     - |   118M |   0 | 248 |2017 |2027 |  10 | 10 |   0 |   0 |-1.831007e+06 |-1.830326e+06*|   0.04%| unknown
  4.9s|     1 |     0 |  9471 |     - |   119M |   0 | 248 |2017 |2028 |  11 | 11 |   0 |   0 |-1.831007e+06 |-1.830326e+06*|   0.04%| unknown
  4.9s|     1 |     0 |  9496 |     - |   119M |   0 | 248 |2017 |2022 |  12 | 12 |   0 |   0 |-1.831007e+06 |-1.830326e+06*|   0.04%| unknown
  5.0s|     1 |     0 |  9527 |     - |   119M |   0 | 248 |2017 |2023 |  13 | 13 |   0 |   0 |-1.831006e+06 |-1.830326e+06*|   0.04%| unknown
  5.0s|     1 |     0 |  9548 |     - |   120M |   0 | 248 |2017 |2024 |  14 | 14 |   0 |   0 |-1.831006e+06 |-1.830326e+06*|   0.04%| unknown
 time | node  | left  |LP iter|LP it/n|mem/heur|mdpt |vars |cons |rows |cuts |sepa|confs|strbr|  dualbound   | primalbound  |  gap   | compl. 
  5.0s|     1 |     0 |  9563 |     - |   120M |   0 | 248 |2017 |2025 |  15 | 15 |   0 |   0 |-1.831006e+06 |-1.830326e+06*|   0.04%| unknown
  5.1s|     1 |     0 |  9585 |     - |   120M |   0 | 248 |2017 |2026 |  16 | 16 |   0 |   0 |-1.831006e+06 |-1.830326e+06*|   0.04%| unknown
  5.1s|     1 |     0 |  9604 |     - |   120M |   0 | 248 |2017 |2027 |  17 | 17 |   0 |   0 |-1.831006e+06 |-1.830326e+06*|   0.04%| unknown
  5.1s|     1 |     0 |  9624 |     - |   120M |   0 | 248 |2017 |2023 |  18 | 18 |   0 |   0 |-1.831006e+06 |-1.830326e+06*|   0.04%| unknown
  5.2s|     1 |     0 |  9634 |     - |   120M |   0 | 248 |2017 |2024 |  19 | 19 |   0 |   0 |-1.831006e+06 |-1.830326e+06*|   0.04%| unknown
  5.2s|     1 |     0 |  9660 |     - |   120M |   0 | 248 |2017 |2025 |  20 | 20 |   0 |   0 |-1.831006e+06 |-1.830326e+06*|   0.04%| unknown
  5.2s|     1 |     0 |  9691 |     - |   120M |   0 | 248 |2017 |2027 |  22 | 21 |   0 |   0 |-1.831005e+06 |-1.830326e+06*|   0.04%| unknown
  7.3s|     1 |     2 | 10843 |     - |   120M |   0 | 248 |2017 |2027 |  22 | 21 |   0 |  19 |-1.830971e+06 |-1.830326e+06*|   0.04%| unknown
 11.0s|   100 |    35 | 19187 | 167.8 |   123M |  14 | 248 |2092 |2025 |  34 |  0 |  75 | 290 |-1.830863e+06 |-1.830326e+06*|   0.03%|  19.32%
 13.1s|   200 |    43 | 26364 | 119.8 |   135M |  15 | 248 |2157 |2024 |  90 |  1 | 141 | 365 |-1.830757e+06 |-1.830326e+06*|   0.02%|  25.63%
 15.7s|   300 |    51 | 36698 | 114.3 |   136M |  15 | 248 |2243 |2025 | 168 |  1 | 229 | 449 |-1.830707e+06 |-1.830326e+06*|   0.02%|  31.70%
 17.7s|   400 |    77 | 45003 | 106.5 |   136M |  15 | 248 |2274 |2022 | 221 |  1 | 261 | 483 |-1.830655e+06 |-1.830326e+06*|   0.02%|  38.17%
 19.6s|   500 |    99 | 55545 | 106.3 |   136M |  15 | 248 |2303 |2020 | 265 |  1 | 290 | 511 |-1.830615e+06 |-1.830326e+06*|   0.02%|  43.37%
 20.8s|   600 |   113 | 61825 |  99.0 |   136M |  15 | 248 |2329 |2020 | 285 |  1 | 317 | 532 |-1.830586e+06 |-1.830326e+06*|   0.01%|  48.84%
 21.9s|   700 |   115 | 69783 |  96.3 |   136M |  15 | 248 |2357 |2025 | 298 |  1 | 346 | 558 |-1.830577e+06 |-1.830326e+06*|   0.01%|  53.20%
 time | node  | left  |LP iter|LP it/n|mem/heur|mdpt |vars |cons |rows |cuts |sepa|confs|strbr|  dualbound   | primalbound  |  gap   | compl. 
 22.8s|   800 |   123 | 76247 |  92.3 |   136M |  15 | 248 |2383 |2022 | 300 |  3 | 374 | 577 |-1.830548e+06 |-1.830326e+06*|   0.01%|  57.10%
 24.2s|   900 |   109 | 82933 |  89.5 |   136M |  16 | 248 |2412 |2026 | 345 |  7 | 405 | 596 |-1.830526e+06 |-1.830326e+06*|   0.01%|  63.68%
 25.3s|  1000 |    95 | 88381 |  86.0 |   137M |  16 | 248 |2435 |2021 | 373 |  2 | 428 | 615 |-1.830489e+06 |-1.830326e+06*|   0.01%|  70.89%
 26.2s|  1100 |    63 | 93326 |  82.7 |   137M |  16 | 248 |2446 |2026 | 393 |  0 | 442 | 626 |-1.830470e+06 |-1.830326e+06*|   0.01%|  78.81%
 27.3s|  1200 |    13 | 97953 |  79.6 |   137M |  16 | 248 |2457 |2025 | 422 |  0 | 457 | 641 |-1.830422e+06 |-1.830326e+06*|   0.01%|  88.08%

SCIP Status        : problem is solved [optimal solution found]
Solving Time (sec) : 27.52
Solving Nodes      : 1219 (total of 1220 nodes in 2 runs)
Primal Bound       : -1.83032637000000e+06 (312 solutions)
Dual Bound         : -1.83032637000000e+06
Gap                : 0.00 %
Solve Status: optimal
Solve Time: 27.52 seconds
